c ind 10 3 4 6 7 0
p cnf 14 42
-1 -2 5 0
-1 2 8 0
-11 -4 6 0
-11 -6 4 0
-12 -13 5 0
-12 13 14 0
-13 -10 4 0
-13 -4 10 0
-14 -10 6 0
-14 -6 10 0
-2 -3 4 0
-2 -4 3 0
-5 -6 7 0
-5 -7 6 0
-7 0
-8 -9 11 0
-8 9 12 0
-9 -10 7 0
-9 -7 10 0
1 -2 -5 0
1 -5 -8 0
1 0
1 2 -8 0
11 -6 -4 0
11 6 4 0
12 -13 -5 0
12 -5 -14 0
12 13 -14 0
13 -10 -4 0
13 10 4 0
14 -6 -10 0
14 6 10 0
2 -3 -4 0
2 3 4 0
4 0
5 -6 -7 0
5 6 7 0
8 -11 -12 0
8 -9 -11 0
8 9 -12 0
9 -10 -7 0
9 10 7 0
